data/processed_heuristic-threshold/instances/1/9/ds_610_courier_979/pairwise.tsp
NAME: ds_610_courier_979
TYPE: TSP
COMMENT: nil
DIMENSION: 10
EDGE_WEIGHT_TYPE: EXPLICIT
EDGE_WEIGHT_FORMAT: FULL_MATRIX
EDGE_WEIGHT_SECTION
9999 1472 1247 1083 1080 1176 1174 862 1185 1228 
1472 9999 727 390 395 452 328 614 867 717 
1247 727 9999 644 657 317 499 709 1319 1211 
1083 390 644 9999 14 336 174 224 681 568 
1080 395 657 14 9999 350 187 220 667 554 
1176 452 317 336 350 9999 183 454 1017 901 
1174 328 499 174 187 183 9999 356 847 725 
862 614 709 224 220 454 356 9999 648 580 
1185 867 1319 681 667 1017 847 648 9999 154 
1228 717 1211 568 554 901 725 580 154 9999 
