data/processed_heuristic-threshold/instances/1/9/ds_610_courier_979/pairwise.sol
10
0 8 9 1 2 5 6 3 4 7 
